n_machines = 5;
n_resources = 8;
n_jobs = 84;
horizon = 4544;
LB = 942;
n_jobs_per_resource = [10, 12, 10, 15, 19, 2, 14, 2];
duration = [92, 96, 53, 23, 85, 95, 95, 29, 3, 90, 29, 76, 39, 49, 38, 34, 36, 96, 72, 82, 39, 98, 56, 44, 67, 25, 2, 36, 70, 35, 45, 1, 12, 86, 61, 52, 47, 5, 86, 70, 95, 21, 35, 12, 86, 44, 87, 44, 25, 44, 86, 94, 43, 8, 59, 26, 4, 71, 73, 14, 46, 19, 79, 20, 67, 34, 72, 39, 35, 44, 95, 59, 77, 44, 96, 87, 52, 36, 51, 91, 99, 76, 95, 11]